NAME : mr33
COMMENT : 33-city problem (DISC)
TYPE : TSP
DIMENSION : 33
EDGE_WEIGHT_TYPE : EUC_2D
NODE_COORD_SECTION
1 25 34
2 45 36
3 42 8
4 27 56
5 88 17
6 19 30
7 2 85
8 96 37
9 69 35
10 49 72
11 97 4
12 40 48
13 8 74
14 36 78
15 17 25
16 99 31
17 89 14
18 50 60
19 41 17
20 46 81
21 73 51
22 25 6
23 63 40
24 15 62
25 21 19
26 9 43
27 96 9
28 6 74
29 60 40
30 73 35
31 98 40
32 83 2
33 53 47
EOF
